
  24    0


   0  15 2 3 4 5 6 7 10 11 12 13 19 20 21 22 23 
   1   3 18 14 8 
   5   2 15 9 
   6   2 17 8 
   2   2 14 8 
   3   1 8 
   2   1 9 
   1   1 15 
   3   1 14 
   4   1 16 
   8   1 15 
  10   1 14 
  10   1 14 
   4   1 24
   9   1 24
   1   1 24
   2   1 24
   1   1 24
   5   1 24
   7   1 24
  10   1 24
   5   1 24
   9   1 24
   0   0 
